3000 4772
32
185 365
200 378
165 410
148 425
296 425
116 439
1006 464
205 520
350 520
530 540
1413 549
1882 549
496 553
755 555
496 555
659 555
473 567
592 572
975 572
1175 572
1575 572
1390 572
1490 572
1590 572
1690 572
1890 572
625 610
490 660
447 690
445 949
478 949
463 970
